(set-logic QF_S) 
(declare-fun Q2 () String) 
(declare-fun I3 () String) 
(declare-fun O () String) 
(declare-fun H3 () String) 
(declare-fun D3 () String) 
(declare-fun Y () String) 
(declare-fun L3 () String) 
(declare-fun I2 () String) 
(declare-fun E3 () String) 
(declare-fun T1 () String) 
(declare-fun O2 () String) 
(declare-fun K1 () String) 
(declare-fun G1 () String) 
(declare-fun S1 () String) 
(declare-fun J1 () String) 
(declare-fun I1 () String) 
(declare-fun Q () String) 
(declare-fun P2 () String) 
(declare-fun J3 () String) 
(declare-fun F1 () String) 
(declare-fun B2 () String) 
(declare-fun L () String) 
(declare-fun P3 () String) 
(declare-fun H () String) 
(declare-fun T3 () String) 
(declare-fun B3 () String) 
(declare-fun R1 () String) 
(declare-fun L1 () String) 
(declare-fun V1 () String) 
(declare-fun H1 () String) 
(assert (= (str.++ "b" "b" "v" Q2 I3 O "n" "v" "t" "d" "m" "o" H3 "r" "s" "s" "z" D3 "u" "w" "f" "o" "p" "q" "p" "m" "v" "w" "k" "v" "q" "h" "i" "s" "a" "n" "c" Y "o" "i" "e" "q" "u" "s" "o" "d" "y" "v" "r" "v" L3 "k") (str.++ I2 "v" "j" "s" E3 "v" "t" "d" "m" "o" "x" "r" "s" "s" "z" "v" "h" "u" "w" "f" "o" "p" "q" "p" "m" "v" "w" "k" "v" "q" "h" T1 "a" "n" O2 "e" "z" "b" "e" "q" "o" "i" K1 "s" "o" "d" "y" "v" "r" "v" "y" "h" "k")))
(assert (= (str.++ "t" "w" "f" "f" "b" "w" "n" "n" "b" "w" "f" "a" "z" "s" G1 "a" "f" "o" "j" "x" "s" "p" "d" "g" "m" "o" "j" "h" "o" "i" "v" "z" "o" "t" "x" "d" "i" "i" "k" "o" "l" "n" "i" "b" "w" "i" "w" "o" "q" "g" "w" "b" "u" "v" "x" "d" "i" "i") (str.++ S1 "f" "b" "w" J1 "n" "b" "w" "f" H3 "z" "s" I1 Q "f" "o" "j" "x" "s" "p" P2 J3 "h" "o" F1 "z" "o" B2 "d" "i" "i" "k" "o" "l" "n" "i" "b" "w" "i" "w" "o" "q" "g" "w" "b" "u" L3 "i" "i")))
(assert (= (str.++ D3 "z" "p" "o" "v" "o" "w" "o" "t" "y" "i" "p" L P3 H G1 "r" "o" "h" "i" "e" "u" "w" "i" "u" T3 "x" B3 "u" "y" "l" "u" "f" R1 "l" "d" "a" "j" "k" "h" "x" "j" "u" "g" "y" "e" "d" "c" "k") (str.++ "q" "z" L1 "v" "o" "w" "o" "t" "y" "i" "p" "u" "w" "i" "u" "p" "x" "q" "o" "v" "r" "o" "h" "i" "e" "u" "w" "i" "u" "d" "a" "e" "x" "g" "j" "l" "u" "y" "l" "u" "f" "x" V1 "d" "a" "j" "k" H1 "j" "u" "g" "y" "e" "d" "c" "k")))
(check-sat) 
(get-model)